language Essence 1.3

letting class be function(1 --> 1, 2 --> 1, 3 --> 2, 4 --> 1, 5 --> 1, 6 --> 1, 7 --> 1, 8 --> 2, 9 --> 2)
letting deck_length be 24
letting deck_width be 66
letting length be function(1 --> 15, 2 --> 24, 3 --> 22, 4 --> 15, 5 --> 21, 6 --> 1, 7 --> 23, 8 --> 6, 9 --> 4)
letting n_classes be 2
letting n_containers be 9
letting separation be function({1, 2} --> 19)
letting width be function(1 --> 13, 2 --> 5, 3 --> 9, 4 --> 3, 5 --> 2, 6 --> 5, 7 --> 1, 8 --> 2, 9 --> 2)
